50
4730

888 402
98 911
199 179
196 433
910 860
37 837
964 306
229 923
300 383
183 238
599 36
796 396
998 624
1000 218
832 427
608 176
266 503
263 606
778 361
79 772
103 466
738 149
631 593
584 988
994 273
829 32
67 453
624 262
977 807
1000 761
53 72
138 757
480 65
815 418
490 93
361 961
51 410
794 486
697 828
169 32
300 24
229 667
192 280
403 746
784 17
455 775
633 680
992 168
828 895
383 254
